50
    1    55    45
    2   109    99
    3   103    93
    4   106    96
    5    77    67
    6    39    29
    7   110   100
    8    75    65
    9    51    41
   10    33    23
   11   101    91
   12    12     2
   13    80    70
   14   109    99
   15    91    81
   16    11     1
   17    56    46
   18   106    96
   19    69    59
   20    14     4
   21    67    57
   22    14     4
   23   110   100
   24    30    20
   25   103    93
   26    18     8
   27    71    61
   28    37    27
   29    16     6
   30    58    48
   31    64    54
   32    27    17
   33    20    10
   34    21    11
   35    35    25
   36    25    15
   37    68    58
   38    30    20
   39    17     7
   40    89    79
   41    24    14
   42   101    91
   43    23    13
   44    14     4
   45    11     1
   46    11     1
   47   106    96
   48   103    93
   49    60    50
   50    56    46
1557
